(declare-fun a_ack!26 () (_ BitVec 64))
(declare-fun b_ack!24 () (_ BitVec 64))
(declare-fun c_ack!25 () (_ BitVec 64))
(declare-fun FPCHECK_FSUB_ACCURACY ((_ BitVec 64) (_ BitVec 64)) Bool)
(assert (not (fp.lt ((_ to_fp 11 53) a_ack!26) ((_ to_fp 11 53) #x0000000000000000))))
(assert (not (fp.lt ((_ to_fp 11 53) b_ack!24) ((_ to_fp 11 53) #x0000000000000000))))
(assert (not (fp.lt ((_ to_fp 11 53) c_ack!25) ((_ to_fp 11 53) #x0000000000000000))))
(assert (FPCHECK_FSUB_ACCURACY c_ack!25 #x3ff0000000000000))

(check-sat)
(exit)
